peakDumbCharging = 18500; 
Machine = anon_enum(16); 
machineSpeed = [3700,3700,3700,3700,3700,3700,3700,3700,3700,3700,3700,3700,3700,3700,3700,3700]; 
machineLoad = [3700,3700,3700,3700,3700,3700,3700,3700,3700,3700,3700,3700,3700,3700,3700,3700]; 
Car = anon_enum(19); 
demandCar = [5640,4840,1360,880,1320,9000,9240,4840,7200,17160,17480,9600,9720,7920,1160,25440,11960,9600,7600]; 
arrivalCar = [67,63,63,62,61,60,60,57,56,52,51,47,41,40,37,37,35,34,33]; 
departureCar = [71,66,65,63,63,64,66,60,60,64,61,51,46,45,39,53,41,39,38]; 
